
Gurobi 13.0.2 (win64) logging started Thu Jul 23 14:28:47 2026

Set parameter LogFile to value "E:\codes\ExactEBRP\results\gf_gurobi_performance_recovery_round29\runs\stage1__tight_T_seed3101__c3_replica__300s\external\native_logs\R.0.0_lp.gurobi.log"
Gurobi Optimizer version 13.0.2 build v13.0.2rc1 (win64 - Windows 10.0 (19045.2))

CPU model: 12th Gen Intel(R) Core(TM) i7-12700KF, instruction set [SSE2|AVX|AVX2]
Thread count: 12 physical cores, 20 logical processors, using up to 1 threads

Non-default parameters:
TimeLimit  264.6951219
MIPGap  0
MIPGapAbs  0
LogToConsole  0
Threads  1

Optimize a model with 11939 rows, 3384 columns and 67170 nonzeros (Min)
Model fingerprint: 0xfcc8873c
Model has 21 linear objective coefficients
Coefficient statistics:
  Matrix range     [7e-03, 2e+04]
  Objective range  [7e-03, 1e+00]
  Bounds range     [3e-02, 3e+02]
  RHS range        [3e-02, 5e+04]

Presolve removed 1404 rows and 116 columns
Presolve time: 0.04s
Presolved: 10535 rows, 3335 columns, 61432 nonzeros

Iteration    Objective       Primal Inf.    Dual Inf.      Time
       0    0.0000000e+00   3.618828e+02   0.000000e+00      0s

Extra simplex iterations after uncrush: 58
    4106    1.6925728e-03   0.000000e+00   0.000000e+00      0s

Solved in 4106 iterations and 0.29 seconds (0.88 work units)
Optimal objective  1.692572795e-03

User-callback calls 4257, time in user-callback 0.00 sec
